2 15
474 408 
0 92 98 77 16 93 13 1
1 37 22 45 65 49 42 1
2 62 20 63 91 57 37 1
3 18 89 95 44 50 74 1
4 84 42 60 93 31 72 2
5 51 96 60 50 83 84 2
6 4 43 52 70 50 78 1
7 62 82 94 28 78 63 1
8 53 63 5 30 59 88 1
9 33 56 93 11 93 94 2
10 53 98 46 36 55 64 1
11 77 81 42 92 16 33 1
12 93 74 54 25 50 13 1
13 56 34 97 81 4 1 1
14 41 51 14 85 92 65 1
